unsat
( _c0
  _c1076
  _c1077
  _c1078
  _c354
  _c358
  _c362
  _c366
  _c4266
  _c4267
  _c4268
  _c4269
  _c4271
  _c4610
  _c4619
  _c4620
  _c4628
  _c4629
  _c4630
  _c4632
  _c4637
  _c4638
  _c4639
  _c4641
  _c5362
  _c5363
  _c5364
  _c5365
  _c5367
  _c5511
  _c5512
  _c5513
  _c5514
  _c5515 )
